NAME:  br17
TYPE: ATSP
COMMENT: Asymmetric TSP (Fischetti)
DIMENSION:  10
EDGE_WEIGHT_TYPE: EXPLICIT
EDGE_WEIGHT_FORMAT: FULL_MATRIX 
EDGE_WEIGHT_SECTION
    0  676  484  543  132  410  738  532  363  627
    205  0  760  478  256  303  352  763  205  903
    654  495  0  401  520  787  324  373  442  329
    126  644  953  0  489  957  862  303  342  497
    420  370  287  997  0  727  149  456  994  602
    585  281  368  357  881  0  585  453  311  983
    180  566  893  743  512  780  0  246  720  778
    715  316  954  629  719  324  742  0  300  618
    331  658  884  351  602  838  355  500  0  427
    687  431  374  968  604  347  809  556  237  0
EOF
